(set-option :produce-models true); benchmark generated from python API
(set-info :status unknown)
(declare-fun l_1_0_8 () Real)
(declare-fun l_1_0_7 () Real)
(declare-fun l_1_0_6 () Real)
(declare-fun l_1_0_5 () Real)
(declare-fun l_1_0_4 () Real)
(declare-fun l_1_0_3 () Real)
(declare-fun l_1_0_2 () Real)
(declare-fun l_1_0_11 () Real)
(declare-fun l_1_0_10 () Real)
(declare-fun l_1_0_1 () Real)
(declare-fun _a_0_ () Real)
(declare-fun l_1_0_14 () Real)
(declare-fun l_1_0_13 () Real)
(declare-fun l_1_0_12 () Real)
(declare-fun _a_1_ () Real)
(declare-fun l_1_0_9 () Real)
(declare-fun _a_2_ () Real)
(declare-fun _a_3_ () Real)
(declare-fun _a_4_ () Real)
(declare-fun _a_5_ () Real)
(declare-fun l_1_1_9 () Real)
(declare-fun l_1_1_6 () Real)
(declare-fun l_1_1_3 () Real)
(declare-fun l_1_1_2 () Real)
(declare-fun l_1_1_17 () Real)
(declare-fun l_1_1_16 () Real)
(declare-fun l_1_1_14 () Real)
(declare-fun l_1_1_13 () Real)
(declare-fun l_1_1_12 () Real)
(declare-fun l_1_1_10 () Real)
(declare-fun l_1_1_1 () Real)
(declare-fun l_1_1_8 () Real)
(declare-fun l_1_1_7 () Real)
(declare-fun l_1_1_5 () Real)
(declare-fun l_1_1_4 () Real)
(declare-fun l_1_1_11 () Real)
(declare-fun l_1_1_15 () Real)
(declare-fun l_1_1_20 () Real)
(declare-fun l_1_1_19 () Real)
(declare-fun l_1_1_18 () Real)
(declare-fun l_1_2_9 () Real)
(declare-fun l_1_2_8 () Real)
(declare-fun l_1_2_6 () Real)
(declare-fun l_1_2_3 () Real)
(declare-fun l_1_2_17 () Real)
(declare-fun l_1_2_16 () Real)
(declare-fun l_1_2_14 () Real)
(declare-fun l_1_2_13 () Real)
(declare-fun l_1_2_11 () Real)
(declare-fun l_1_2_10 () Real)
(declare-fun l_1_2_1 () Real)
(declare-fun l_1_2_7 () Real)
(declare-fun l_1_2_5 () Real)
(declare-fun l_1_2_4 () Real)
(declare-fun l_1_2_2 () Real)
(declare-fun l_1_2_12 () Real)
(declare-fun l_1_2_20 () Real)
(declare-fun l_1_2_19 () Real)
(declare-fun l_1_2_18 () Real)
(declare-fun l_1_2_15 () Real)
(assert
 (let ((?x1982 (* 19.0 l_1_0_7)))
 (let ((?x47 (* 19.0 l_1_0_3)))
 (let ((?x49 (* 361.0 l_1_0_2)))
 (let ((?x1987 (* l_1_0_11 l_1_0_11)))
 (let ((?x52 (- (- (+ _a_0_ (* 19.0 l_1_0_1)) (* l_1_0_10 l_1_0_10)) ?x1987)))
 (let ((?x41 (+ (- (- (- (+ (- ?x52 ?x49) ?x47) l_1_0_4) l_1_0_5) l_1_0_6) ?x1982)))
 (= (- ?x41 l_1_0_8) 0.0))))))))
(assert
 (let ((?x1875 (* 54.0 l_1_0_2)))
 (let ((?x1914 (* l_1_0_14 l_1_0_14)))
 (let ((?x1912 (* l_1_0_13 l_1_0_13)))
 (let ((?x1876 (- (- (- (- (+ _a_1_ l_1_0_1) (* l_1_0_12 l_1_0_12)) ?x1912) ?x1914) ?x1875)))
 (= (+ (+ ?x1876 l_1_0_3) l_1_0_7) 0.0))))))
(assert
 (let ((?x1805 (* 8.0 l_1_0_7)))
 (let ((?x1802 (* 8.0 l_1_0_3)))
 (let ((?x1800 (* 304.0 l_1_0_2)))
 (let ((?x1864 (- (- _a_2_ (* 8.0 l_1_0_1)) (* (* 2.0 l_1_0_10) l_1_0_9))))
 (= (- (- (+ ?x1864 ?x1800) ?x1802) ?x1805) 0.0))))))
(assert
 (let ((?x1333 (* l_1_0_9 l_1_0_9)))
 (let ((?x1714 (+ (+ (- (+ _a_3_ l_1_0_1) (* 102.0 l_1_0_2)) l_1_0_3) l_1_0_7)))
 (= (- ?x1714 ?x1333) 0.0))))
(assert
 (let ((?x1180 (* 64.0 l_1_0_2)))
 (= (- (- _a_4_ (* (* 2.0 l_1_0_12) l_1_0_9)) ?x1180) 0.0)))
(assert
 (let ((?x1661 (* 4.0 l_1_0_7)))
 (let ((?x1659 (* 4.0 l_1_0_3)))
 (let ((?x1657 (* 152.0 l_1_0_2)))
 (let ((?x57 (- (- _a_5_ (* 4.0 l_1_0_1)) (* (* 2.0 l_1_0_10) l_1_0_12))))
 (let ((?x1546 (- (- (+ (- ?x57 (* (* 2.0 l_1_0_11) l_1_0_13)) ?x1657) ?x1659) ?x1661)))
 (= ?x1546 0.0)))))))
(assert
 (= (- l_1_0_2) 0.0))
(assert
 (= (* 8.0 l_1_0_2) 0.0))
(assert
 (= (* (- 2.0) l_1_0_2) 0.0))
(assert
 (= (* 16.0 l_1_0_2) 0.0))
(assert
 (= (* 8.0 l_1_0_2) 0.0))
(assert
 (= (- l_1_0_2) 0.0))
(assert
 (= (* 16.0 l_1_0_2) 0.0))
(assert
 (>= l_1_0_1 0.0))
(assert
 (>= l_1_0_2 0.0))
(assert
 (>= l_1_0_3 0.0))
(assert
 (>= l_1_0_4 0.0))
(assert
 (>= l_1_0_5 0.0))
(assert
 (>= l_1_0_6 0.0))
(assert
 (>= l_1_0_7 0.0))
(assert
 (>= l_1_0_8 0.0))
(assert
 (>= l_1_0_9 0.0))
(assert
 (>= l_1_0_11 0.0))
(assert
 (>= l_1_0_14 0.0))
(assert
 (let ((?x1336 (* 16.0 l_1_1_9)))
 (let ((?x1332 (* 256.0 l_1_1_6)))
 (let ((?x1455 (* l_1_1_17 l_1_1_17)))
 (let ((?x1454 (* l_1_1_16 l_1_1_16)))
 (let ((?x1450 (* 16.0 l_1_1_12)))
 (let ((?x1447 (* 16.0 l_1_1_1)))
 (let ((?x1445 (* _a_0_ l_1_1_8)))
 (let ((?x1443 (* _a_0_ l_1_1_7)))
 (let ((?x1442 (- (- (* (* (- 16.0) _a_0_) l_1_1_11) (* _a_0_ l_1_1_4)) (* (* 16.0 _a_0_) l_1_1_5))))
 (let ((?x1453 (- (- (- (- (- (- ?x1442 ?x1443) ?x1445) ?x1447) l_1_1_10) ?x1450) l_1_1_13)))
 (let ((?x1329 (- (- (- (- ?x1453 l_1_1_14) ?x1454) ?x1455) (* (* l_1_1_2 _a_0_) _a_0_))))
 (= (+ (- (- (- ?x1329 l_1_1_3) ?x1332) ?x1336) 4.0) 0.0)))))))))))))
(assert
 (let ((?x1141 (* 8.0 l_1_1_9)))
 (let ((?x1332 (* 256.0 l_1_1_6)))
 (let ((?x1120 (* 8.0 l_1_1_12)))
 (let ((?x25 (* 8.0 l_1_1_1)))
 (let ((?x28 (* _a_2_ l_1_1_8)))
 (let ((?x29 (* _a_2_ l_1_1_7)))
 (let ((?x31 (* _a_2_ l_1_1_4)))
 (let ((?x1172 (- (- (- (* (* (* (- 2.0) _a_0_) _a_2_) l_1_1_2) ?x31) ?x29) ?x28)))
 (let ((?x1154 (- (+ ?x1172 ?x25) (* l_1_1_11 (+ (* (- 8.0) _a_0_) (* 16.0 _a_2_))))))
 (let ((?x1157 (- (- (+ ?x1154 ?x1120) (* (* 2.0 l_1_1_15) l_1_1_16)) (* l_1_1_5 (+ (* (- 8.0) _a_0_) (* 16.0 _a_2_))))))
 (= (- (+ (+ ?x1157 ?x1332) ?x1141) 1.0) 0.0))))))))))))
(assert
 (let ((?x834 (* 48.0 l_1_1_6)))
 (let ((?x827 (* l_1_1_20 l_1_1_20)))
 (let ((?x890 (* l_1_1_19 l_1_1_19)))
 (let ((?x888 (* l_1_1_18 l_1_1_18)))
 (let ((?x880 (* _a_1_ l_1_1_8)))
 (let ((?x882 (- (- (- (* (- _a_1_) l_1_1_4) (* _a_1_ l_1_1_7)) ?x880) l_1_1_1)))
 (let ((?x728 (- ?x882 (* l_1_1_11 (- (+ _a_0_ (* 16.0 _a_1_)) (* 4.0 _a_5_))))))
 (let ((?x826 (- (- (- (- ?x728 l_1_1_12) ?x888) ?x890) (* l_1_1_2 (+ (* (* 2.0 _a_0_) _a_1_) (* _a_5_ _a_5_))))))
 (let ((?x832 (- (- ?x826 ?x827) (* l_1_1_5 (- (+ _a_0_ (* 16.0 _a_1_)) (* 4.0 _a_5_))))))
 (= (- (- ?x832 ?x834) l_1_1_9) 0.0)))))))))))
(assert
 (let ((?x424 (* 4.0 l_1_1_12)))
 (let ((?x417 (* 4.0 l_1_1_1)))
 (let ((?x473 (* _a_5_ l_1_1_8)))
 (let ((?x470 (* _a_5_ l_1_1_7)))
 (let ((?x468 (* _a_5_ l_1_1_4)))
 (let ((?x474 (- (- (- (* (* (* (- 2.0) _a_0_) _a_5_) l_1_1_2) ?x468) ?x470) ?x473)))
 (let ((?x423 (- (+ ?x474 ?x417) (* l_1_1_11 (+ (* (- 4.0) _a_0_) (* 16.0 _a_5_))))))
 (let ((?x412 (- (- (+ ?x423 ?x424) (* (* 2.0 l_1_1_16) l_1_1_18)) (* (* 2.0 l_1_1_17) l_1_1_19))))
 (let ((?x16 (+ (- ?x412 (* l_1_1_5 (+ (* (- 4.0) _a_0_) (* 16.0 _a_5_)))) (* 128.0 l_1_1_6))))
 (= (+ ?x16 (* 4.0 l_1_1_9)) 0.0)))))))))))
(assert
 (let ((?x212 (* 96.0 l_1_1_6)))
 (let ((?x260 (* l_1_1_15 l_1_1_15)))
 (let ((?x148 (* _a_3_ l_1_1_8)))
 (let ((?x251 (- (- (- (* (- _a_3_) l_1_1_4) (* _a_3_ l_1_1_7)) ?x148) l_1_1_1)))
 (let ((?x258 (- ?x251 (* l_1_1_11 (+ (- _a_0_ (* 8.0 _a_2_)) (* 16.0 _a_3_))))))
 (let ((?x149 (- (- (- ?x258 l_1_1_12) ?x260) (* l_1_1_2 (+ (* (* 2.0 _a_0_) _a_3_) (* _a_2_ _a_2_))))))
 (let ((?x209 (- ?x149 (* l_1_1_5 (+ (- _a_0_ (* 8.0 _a_2_)) (* 16.0 _a_3_))))))
 (= (- (- ?x209 ?x212) l_1_1_9) 0.0)))))))))
(assert
 (let ((?x1383 (* 64.0 l_1_1_6)))
 (let ((?x901 (* 8.0 _a_5_)))
 (let ((?x1611 (* 16.0 _a_4_)))
 (let ((?x1610 (* (- 4.0) _a_2_)))
 (let ((?x1612 (+ ?x1610 ?x1611)))
 (let ((?x902 (- ?x1612 ?x901)))
 (let ((?x908 (+ (* (* 2.0 _a_0_) _a_4_) (* (* 2.0 _a_2_) _a_5_))))
 (let ((?x1614 (* _a_4_ l_1_1_8)))
 (let ((?x911 (- (- (- (* (- _a_4_) l_1_1_4) (* _a_4_ l_1_1_7)) ?x1614) (* l_1_1_11 ?x902))))
 (let ((?x404 (- (- (- ?x911 (* (* 2.0 l_1_1_15) l_1_1_18)) (* l_1_1_2 ?x908)) (* l_1_1_5 ?x902))))
 (= (- ?x404 ?x1383) 0.0))))))))))))
(assert
 (let ((?x755 (- (- (* (- _a_1_) l_1_1_11) (* _a_1_ l_1_1_5)) (* (* l_1_1_2 _a_1_) _a_1_))))
 (= (- ?x755 l_1_1_6) 0.0)))
(assert
 (let ((?x203 (* 16.0 l_1_1_6)))
 (let ((?x1262 (+ (* (* 2.0 _a_1_) _a_2_) (* (* 2.0 _a_4_) _a_5_))))
 (let ((?x1305 (* 4.0 _a_4_)))
 (let ((?x1399 (* (- 8.0) _a_1_)))
 (let ((?x1400 (+ ?x1399 _a_2_)))
 (let ((?x1256 (- ?x1400 ?x1305)))
 (let ((?x1402 (- l_1_1_11)))
 (let ((?x200 (+ (- (- (* ?x1402 ?x1256) (* l_1_1_2 ?x1262)) (* l_1_1_5 ?x1256)) ?x203)))
 (= ?x200 0.0))))))))))
(assert
 (let ((?x1739 (* 2.0 l_1_1_6)))
 (let ((?x1732 (- (* (- l_1_1_11) (+ _a_1_ _a_3_)) (* l_1_1_2 (+ (* (* 2.0 _a_1_) _a_3_) (* _a_4_ _a_4_))))))
 (= (- (- ?x1732 (* l_1_1_5 (+ _a_1_ _a_3_))) ?x1739) 0.0))))
(assert
 (let ((?x556 (* _a_4_ l_1_1_5)))
 (let ((?x1113 (* _a_4_ l_1_1_11)))
 (= (- (- (* (* (* (- 2.0) _a_1_) _a_4_) l_1_1_2) ?x1113) ?x556) 0.0))))
(assert
 (let ((?x1574 (* 8.0 l_1_1_6)))
 (let ((?x1569 (- (* (* (* (- 2.0) _a_1_) _a_5_) l_1_1_2) (* l_1_1_11 (+ (* (- 4.0) _a_1_) _a_5_)))))
 (= (+ (- ?x1569 (* l_1_1_5 (+ (* (- 4.0) _a_1_) _a_5_))) ?x1574) 0.0))))
(assert
 (let ((?x203 (* 16.0 l_1_1_6)))
 (let ((?x1892 (- (* (* (* (- 2.0) _a_2_) _a_3_) l_1_1_2) (* l_1_1_11 (- _a_2_ (* 8.0 _a_3_))))))
 (= (+ (- ?x1892 (* l_1_1_5 (- _a_2_ (* 8.0 _a_3_)))) ?x203) 0.0))))
(assert
 (let ((?x1574 (* 8.0 l_1_1_6)))
 (let ((?x1695 (+ (* (* 2.0 _a_2_) _a_4_) (* (* 2.0 _a_3_) _a_5_))))
 (let ((?x1673 (+ (- (* (- 4.0) _a_3_) (* 8.0 _a_4_)) _a_5_)))
 (let ((?x1402 (- l_1_1_11)))
 (let ((?x1396 (+ (- (- (* ?x1402 ?x1673) (* l_1_1_2 ?x1695)) (* l_1_1_5 ?x1673)) ?x1574)))
 (= ?x1396 0.0)))))))
(assert
 (let ((?x1618 (- (- (* (- _a_3_) l_1_1_11) (* _a_3_ l_1_1_5)) (* (* l_1_1_2 _a_3_) _a_3_))))
 (= (- ?x1618 l_1_1_6) 0.0)))
(assert
 (let ((?x556 (* _a_4_ l_1_1_5)))
 (let ((?x1113 (* _a_4_ l_1_1_11)))
 (= (- (- (* (* (* (- 2.0) _a_3_) _a_4_) l_1_1_2) ?x1113) ?x556) 0.0))))
(assert
 (>= l_1_1_1 0.0))
(assert
 (>= l_1_1_2 0.0))
(assert
 (>= l_1_1_3 0.0))
(assert
 (>= l_1_1_4 0.0))
(assert
 (>= l_1_1_5 0.0))
(assert
 (>= l_1_1_6 0.0))
(assert
 (>= l_1_1_7 0.0))
(assert
 (>= l_1_1_8 0.0))
(assert
 (>= l_1_1_9 0.0))
(assert
 (>= l_1_1_10 0.0))
(assert
 (>= l_1_1_11 0.0))
(assert
 (>= l_1_1_12 0.0))
(assert
 (>= l_1_1_13 0.0))
(assert
 (>= l_1_1_14 0.0))
(assert
 (>= l_1_1_15 0.0))
(assert
 (>= l_1_1_17 0.0))
(assert
 (>= l_1_1_20 0.0))
(assert
 (let ((?x1579 (* 16.0 l_1_2_8)))
 (let ((?x1052 (* 16.0 l_1_2_6)))
 (let ((?x1048 (* l_1_2_17 l_1_2_17)))
 (let ((?x1046 (* l_1_2_16 l_1_2_16)))
 (let ((?x1133 (* 256.0 l_1_2_10)))
 (let ((?x1129 (* 16.0 l_1_2_1)))
 (let ((?x815 (* _a_0_ l_1_2_7)))
 (let ((?x816 (* _a_0_ l_1_2_5)))
 (let ((?x1423 (+ (+ (* (- _a_0_) l_1_2_12) (* (* 16.0 _a_0_) l_1_2_2)) (* (* 16.0 _a_0_) l_1_2_4))))
 (let ((?x1134 (- (- (- (+ (+ (- (- ?x1423 ?x816) ?x815) _a_0_) ?x1129) ?x1133) l_1_2_11) l_1_2_13)))
 (let ((?x1051 (- (- (- (- ?x1134 l_1_2_14) ?x1046) ?x1048) (* (* l_1_2_3 _a_0_) _a_0_))))
 (= (- (+ (+ ?x1051 ?x1052) ?x1579) l_1_2_9) 0.0)))))))))))))
(assert
 (let ((?x576 (* 4.0 _a_5_)))
 (let ((?x1832 (+ (- (- _a_0_) (* 16.0 _a_1_)) ?x576)))
 (let ((?x1667 (* l_1_2_20 l_1_2_20)))
 (let ((?x1837 (* l_1_2_19 l_1_2_19)))
 (let ((?x1483 (* l_1_2_18 l_1_2_18)))
 (let ((?x1481 (* 48.0 l_1_2_10)))
 (let ((?x1470 (* (/ 1.0 10.0) _a_4_)))
 (let ((?x1479 (* (/ 1.0 100.0) _a_3_)))
 (let ((?x1016 (* _a_1_ l_1_2_7)))
 (let ((?x1018 (+ (- (- (* (- _a_1_) l_1_2_12) (* _a_1_ l_1_2_5)) ?x1016) _a_1_)))
 (let ((?x1586 (- (- (- (- (+ (- (+ ?x1018 ?x1479) ?x1470) l_1_2_1) ?x1481) ?x1483) ?x1837) (* l_1_2_2 ?x1832))))
 (let ((?x1737 (- (- ?x1586 ?x1667) (* l_1_2_3 (+ (* (* 2.0 _a_0_) _a_1_) (* _a_5_ _a_5_))))))
 (= (+ (+ (- ?x1737 (* l_1_2_4 ?x1832)) l_1_2_6) l_1_2_8) 0.0))))))))))))))
(assert
 (let ((?x901 (* 8.0 _a_5_)))
 (let ((?x969 (+ (- (* 4.0 _a_2_) (* 16.0 _a_4_)) ?x901)))
 (let ((?x908 (+ (* (* 2.0 _a_0_) _a_4_) (* (* 2.0 _a_2_) _a_5_))))
 (let ((?x687 (* 64.0 l_1_2_10)))
 (let ((?x978 (* (/ 109.0 100.0) _a_4_)))
 (let ((?x971 (* _a_4_ l_1_2_7)))
 (let ((?x970 (* _a_4_ l_1_2_5)))
 (let ((?x976 (- (- (- (* (/ 1.0 5.0) _a_1_) (* (/ 11.0 50.0) _a_3_)) (* _a_4_ l_1_2_12)) ?x970)))
 (let ((?x966 (- (- (+ (- ?x976 ?x971) ?x978) ?x687) (* (* 2.0 l_1_2_15) l_1_2_18))))
 (let ((?x1121 (- (- (- ?x966 (* l_1_2_2 ?x969)) (* l_1_2_3 ?x908)) (* l_1_2_4 ?x969))))
 (= ?x1121 0.0))))))))))))
(assert
 (let ((?x255 (* 16.0 _a_3_)))
 (let ((?x840 (- (+ (- _a_0_) (* 8.0 _a_2_)) ?x255)))
 (let ((?x1302 (* l_1_2_15 l_1_2_15)))
 (let ((?x1269 (* 96.0 l_1_2_10)))
 (let ((?x1273 (* (/ 11.0 100.0) _a_4_)))
 (let ((?x1534 (* (/ 121.0 100.0) _a_3_)))
 (let ((?x700 (* _a_3_ l_1_2_7)))
 (let ((?x127 (* _a_3_ l_1_2_5)))
 (let ((?x1535 (+ (- (- (- (* (/ 1.0 100.0) _a_1_) (* _a_3_ l_1_2_12)) ?x127) ?x700) ?x1534)))
 (let ((?x502 (- (- (- (+ (+ ?x1535 ?x1273) l_1_2_1) ?x1269) ?x1302) (* l_1_2_2 ?x840))))
 (let ((?x504 (- ?x502 (* l_1_2_3 (+ (* (* 2.0 _a_0_) _a_3_) (* _a_2_ _a_2_))))))
 (= (+ (+ (- ?x504 (* l_1_2_4 ?x840)) l_1_2_6) l_1_2_8) 0.0)))))))))))))
(assert
 (let ((?x620 (* 8.0 l_1_2_8)))
 (let ((?x1797 (* 8.0 l_1_2_6)))
 (let ((?x1133 (* 256.0 l_1_2_10)))
 (let ((?x97 (* 8.0 l_1_2_1)))
 (let ((?x1854 (* (/ 1.0 10.0) _a_5_)))
 (let ((?x1852 (* (/ 11.0 10.0) _a_2_)))
 (let ((?x1476 (* _a_2_ l_1_2_7)))
 (let ((?x683 (* _a_2_ l_1_2_5)))
 (let ((?x1632 (* _a_2_ l_1_2_12)))
 (let ((?x1855 (- (- (- (* (* (* (- 2.0) _a_0_) _a_2_) l_1_2_3) ?x1632) ?x683) ?x1476)))
 (let ((?x332 (- (+ (- (+ (+ ?x1855 ?x1852) ?x1854) ?x97) ?x1133) (* (* 2.0 l_1_2_15) l_1_2_16))))
 (let ((?x1515 (- (- ?x332 (* l_1_2_2 (- (* 8.0 _a_0_) (* 16.0 _a_2_)))) (* l_1_2_4 (- (* 8.0 _a_0_) (* 16.0 _a_2_))))))
 (= (- (- ?x1515 ?x1797) ?x620) 0.0))))))))))))))
(assert
 (let ((?x1262 (+ (* (* 2.0 _a_1_) _a_2_) (* (* 2.0 _a_4_) _a_5_))))
 (let ((?x1964 (* 16.0 l_1_2_10)))
 (let ((?x1963 (* (- (/ 1.0 10.0)) _a_2_)))
 (let ((?x1958 (+ ?x1963 ?x1964)))
 (let ((?x1858 (- ?x1958 (* l_1_2_2 (+ (- (* 8.0 _a_1_) _a_2_) (* 4.0 _a_4_))))))
 (let ((?x1799 (- (- ?x1858 (* l_1_2_3 ?x1262)) (* l_1_2_4 (+ (- (* 8.0 _a_1_) _a_2_) (* 4.0 _a_4_))))))
 (= ?x1799 0.0))))))))
(assert
 (let ((?x83 (* 4.0 l_1_2_8)))
 (let ((?x85 (* 4.0 l_1_2_6)))
 (let ((?x291 (* 128.0 l_1_2_10)))
 (let ((?x296 (* 4.0 l_1_2_1)))
 (let ((?x333 (* _a_5_ l_1_2_7)))
 (let ((?x374 (* _a_5_ l_1_2_5)))
 (let ((?x372 (* _a_5_ l_1_2_12)))
 (let ((?x373 (- (- (* (* (* (- 2.0) _a_0_) _a_5_) l_1_2_3) (* (/ 1.0 10.0) _a_2_)) ?x372)))
 (let ((?x146 (- (+ (- (+ (- (- ?x373 ?x374) ?x333) _a_5_) ?x296) ?x291) (* (* 2.0 l_1_2_16) l_1_2_18))))
 (let ((?x88 (- (- ?x146 (* (* 2.0 l_1_2_17) l_1_2_19)) (* l_1_2_2 (- (* 4.0 _a_0_) (* 16.0 _a_5_))))))
 (let ((?x84 (- (- ?x88 (* l_1_2_4 (- (* 4.0 _a_0_) (* 16.0 _a_5_)))) ?x85)))
 (= (- ?x84 ?x83) 0.0)))))))))))))
(assert
 (let ((?x2077 (- (- (- (* (- (/ 11.0 50.0)) _a_3_) (* (/ 1.0 100.0) _a_4_)) (* 2.0 l_1_2_10)) (* l_1_2_2 (- (- _a_1_) _a_3_)))))
 (let ((?x2079 (- ?x2077 (* l_1_2_3 (+ (* (* 2.0 _a_1_) _a_3_) (* _a_4_ _a_4_))))))
 (= (- ?x2079 (* l_1_2_4 (- (- _a_1_) _a_3_))) 0.0))))
(assert
 (let ((?x1479 (* (/ 1.0 100.0) _a_3_)))
 (= ?x1479 0.0)))
(assert
 (let ((?x1470 (* (/ 1.0 10.0) _a_4_)))
 (let ((?x1599 (* _a_4_ l_1_2_4)))
 (let ((?x1163 (* _a_4_ l_1_2_2)))
 (let ((?x2149 (+ (+ (* (* (* (- 2.0) _a_1_) _a_4_) l_1_2_3) (* (/ 1.0 50.0) _a_3_)) ?x1163)))
 (= (- (+ ?x2149 ?x1599) ?x1470) 0.0))))))
(assert
 (let ((?x2165 (- (- (+ (* _a_1_ l_1_2_2) (* _a_1_ l_1_2_4)) l_1_2_10) (* (* l_1_2_3 _a_1_) _a_1_))))
 (= ?x2165 0.0)))
(assert
 (let ((?x2176 (* 8.0 l_1_2_10)))
 (let ((?x2181 (- (+ (* (* (* (- 2.0) _a_1_) _a_5_) l_1_2_3) ?x2176) (* l_1_2_2 (- (* 4.0 _a_1_) _a_5_)))))
 (= (- ?x2181 (* l_1_2_4 (- (* 4.0 _a_1_) _a_5_))) 0.0))))
(assert
 (let ((?x1695 (+ (* (* 2.0 _a_2_) _a_4_) (* (* 2.0 _a_3_) _a_5_))))
 (let ((?x2176 (* 8.0 l_1_2_10)))
 (let ((?x2231 (- ?x2176 (* l_1_2_2 (- (+ (* 4.0 _a_3_) (* 8.0 _a_4_)) _a_5_)))))
 (let ((?x2235 (- (- ?x2231 (* l_1_2_3 ?x1695)) (* l_1_2_4 (- (+ (* 4.0 _a_3_) (* 8.0 _a_4_)) _a_5_)))))
 (= ?x2235 0.0))))))
(assert
 (let ((?x1964 (* 16.0 l_1_2_10)))
 (let ((?x2302 (- (+ (* (* (* (- 2.0) _a_2_) _a_3_) l_1_2_3) ?x1964) (* l_1_2_2 (+ (- _a_2_) (* 8.0 _a_3_))))))
 (= (- ?x2302 (* l_1_2_4 (+ (- _a_2_) (* 8.0 _a_3_)))) 0.0))))
(assert
 (let ((?x2343 (- (- (+ (* _a_3_ l_1_2_2) (* _a_3_ l_1_2_4)) l_1_2_10) (* (* l_1_2_3 _a_3_) _a_3_))))
 (= ?x2343 0.0)))
(assert
 (let ((?x1599 (* _a_4_ l_1_2_4)))
 (let ((?x1163 (* _a_4_ l_1_2_2)))
 (= (+ (+ (* (* (* (- 2.0) _a_3_) _a_4_) l_1_2_3) ?x1163) ?x1599) 0.0))))
(assert
 (>= l_1_2_1 0.0))
(assert
 (>= l_1_2_2 0.0))
(assert
 (>= l_1_2_3 0.0))
(assert
 (>= l_1_2_4 0.0))
(assert
 (>= l_1_2_5 0.0))
(assert
 (>= l_1_2_6 0.0))
(assert
 (>= l_1_2_7 0.0))
(assert
 (>= l_1_2_8 0.0))
(assert
 (>= l_1_2_9 0.0))
(assert
 (>= l_1_2_10 0.0))
(assert
 (>= l_1_2_11 0.0))
(assert
 (>= l_1_2_12 0.0))
(assert
 (>= l_1_2_13 0.0))
(assert
 (>= l_1_2_14 0.0))
(assert
 (>= l_1_2_15 0.0))
(assert
 (>= l_1_2_17 0.0))
(assert
 (>= l_1_2_20 0.0))
(check-sat)
(get-model)